Clp0006I 0  Obj 0 Primal inf 399.99996 (400) Dual inf 1099661 (40000)
Clp0006I 200  Obj -23517 Primal inf 3802 (372)
Clp0006I 329  Obj -10018 Primal inf 1730 (360)
Clp0006I 391  Obj -10018 Primal inf 1629 (352)
Clp0006I 521  Obj -9996 Primal inf 1131 (334)
Clp0006I 639  Obj -9996 Primal inf 953.99997 (317)
Clp0006I 706  Obj -9996 Primal inf 1707 (308)
Clp0006I 772  Obj -9996 Primal inf 1169 (295)
Clp0006I 853  Obj -9996 Primal inf 891.99997 (283)
Clp0006I 926  Obj -9996 Primal inf 566.99997 (267)
Clp0006I 1016  Obj -9996 Primal inf 521.99998 (239)
Clp0006I 1108  Obj -9995 Primal inf 176.99999 (114)
Clp0006I 1187  Obj -9995 Primal inf 108.99999 (71)
Clp0006I 1259  Obj -9994 Primal inf 92.999994 (61)
Clp0006I 1307  Obj -9994
Clp0000I Optimal - objective value -9994
Clp0000I Optimal - objective value -9994
Node 0 depth 0 unsatisfied 0 sum 0 obj -9994 guess -9994 branching on -1
Clp0000I Optimal - objective value -9994
Cbc0004I Integer solution of -9994 found after 0 iterations and 0 nodes (0.25 seconds)
Cbc0001I Search completed - best objective -9994, took 0 iterations and 0 nodes (0.26 seconds)
Cbc0035I Maximum depth 0, 0 variables fixed on reduced cost
Clp0000I Optimal - objective value -9994
Clp0000I Optimal - objective value -9994
x_65 = 1
x_284 = 1
x_512 = 1
x_717 = 1
x_830 = 1
x_1078 = 1
x_1307 = 1
x_1417 = 1
x_1674 = 1
x_1849 = 1
x_2151 = 1
x_2303 = 1
x_2412 = 1
x_2762 = 1
x_2982 = 1
x_3016 = 1
x_3321 = 1
x_3437 = 1
x_3791 = 1
x_3979 = 1
x_4100 = 1
x_4314 = 1
x_4493 = 1
x_4796 = 1
x_4976 = 1
x_5018 = 1
x_5365 = 1
x_5525 = 1
x_5661 = 1
x_5847 = 1
x_6058 = 1
x_6332 = 1
x_6459 = 1
x_6697 = 1
x_6995 = 1
x_7197 = 1
x_7251 = 1
x_7542 = 1
x_7730 = 1
x_7871 = 1
x_8140 = 1
x_8226 = 1
x_8569 = 1
x_8687 = 1
x_8954 = 1
x_9046 = 1
x_9272 = 1
x_9526 = 1
x_9757 = 1
x_9948 = 1
x_10171 = 1
x_10308 = 1
x_10485 = 1
x_10781 = 1
x_10983 = 1
x_11147 = 1
x_11316 = 1
x_11421 = 1
x_11733 = 1
x_11857 = 1
x_12009 = 1
x_12280 = 1
x_12537 = 1
x_12664 = 1
x_12946 = 1
x_13129 = 1
x_13374 = 1
x_13599 = 1
x_13645 = 1
x_13856 = 1
x_14029 = 1
x_14268 = 1
x_14570 = 1
x_14786 = 1
x_14803 = 1
x_15166 = 1
x_15248 = 1
x_15588 = 1
x_15675 = 1
x_15939 = 1
x_16083 = 1
x_16219 = 1
x_16427 = 1
x_16792 = 1
x_16910 = 1
x_17063 = 1
x_17266 = 1
x_17452 = 1
x_17650 = 1
x_17956 = 1
x_18109 = 1
x_18224 = 1
x_18511 = 1
x_18682 = 1
x_18881 = 1
x_19088 = 1
x_19231 = 1
x_19501 = 1
x_19778 = 1
x_19806 = 1
x_20025 = 1
x_20352 = 1
x_20453 = 1
x_20793 = 1
x_20944 = 1
x_21070 = 1
x_21241 = 1
x_21499 = 1
x_21608 = 1
x_21838 = 1
x_22034 = 1
x_22296 = 1
x_22498 = 1
x_22614 = 1
x_22931 = 1
x_23023 = 1
x_23361 = 1
x_23505 = 1
x_23741 = 1
x_23889 = 1
x_24039 = 1
x_24385 = 1
x_24575 = 1
x_24694 = 1
x_24811 = 1
x_25001 = 1
x_25269 = 1
x_25444 = 1
x_25758 = 1
x_25984 = 1
x_26040 = 1
x_26291 = 1
x_26520 = 1
x_26628 = 1
x_26815 = 1
x_27032 = 1
x_27380 = 1
x_27490 = 1
x_27735 = 1
x_27862 = 1
x_28113 = 1
x_28394 = 1
x_28477 = 1
x_28728 = 1
x_28822 = 1
x_29060 = 1
x_29233 = 1
x_29402 = 1
x_29798 = 1
x_29835 = 1
x_30119 = 1
x_30276 = 1
x_30522 = 1
x_30738 = 1
x_30805 = 1
x_31106 = 1
x_31334 = 1
x_31545 = 1
x_31613 = 1
x_31967 = 1
x_32118 = 1
x_32254 = 1
x_32550 = 1
x_32723 = 1
x_32820 = 1
x_33010 = 1
x_33359 = 1
x_33564 = 1
x_33715 = 1
x_33879 = 1
x_34092 = 1
x_34372 = 1
x_34563 = 1
x_34702 = 1
x_34800 = 1
x_35073 = 1
x_35286 = 1
x_35404 = 1
x_35755 = 1
x_35895 = 1
x_36160 = 1
x_36207 = 1
x_36436 = 1
x_36787 = 1
x_36842 = 1
x_37177 = 1
x_37373 = 1
x_37543 = 1
x_37667 = 1
x_37904 = 1
x_38149 = 1
x_38243 = 1
x_38568 = 1
x_38655 = 1
x_38924 = 1
x_39153 = 1
x_39390 = 1
x_39536 = 1
x_39789 = 1
x_39927 = 1
real 0m0,480s user 0m0,426s sys 0m0,053s
